c --- [ banner ] -------------------------------------------------------------
c 
c CaDiCaL Radically Simplified CDCL SAT Solver
c Copyright (c) 2016-2021 A. Biere, M. Fleury, N. Froleyks
c 
c Version 1.5.2 a5f15211db36c3956764e18194dd5bd63bf3b5e6
c g++ (GCC) 9.3.0 -Wall -Wextra -O3 -DNDEBUG
c Fri Oct 21 01:27:37 EDT 2022 Linux gra-login3 3.10.0-1160.66.1.el7.x86_64 x86_64
c 
c --- [ limit ] --------------------------------------------------------------
c 
c setting conflict limit to 200000 conflicts (due to '200000')
c 
c --- [ parsing input ] ------------------------------------------------------
c 
c reading DIMACS file from '33.cubes1359.adj'
c opening file to read '33.cubes1359.adj'
c found 'p cnf 6160 1595478' header
c parsed 1595478 clauses in 19.43 seconds process time
c closing file '33.cubes1359.adj'
c after reading 1457566795 bytes 1390.0 MB
c 
c --- [ options ] ------------------------------------------------------------
c 
c all options are set to their default value
c 
c --- [ solving ] ------------------------------------------------------------
c 
c time measured in process time since initialization
c 
c  seconds    reductions  redundant   irredundant
c          MB     restarts       trail       variables
c            level   conflicts       glue         remaining
c 
c * 19.43 1369  0 0   0    0    0  0% 0 1595422 2357 38%
c { 20.95 1437  0 0   0    0    0  0% 0 1595422 2357 38%
c i 21.77 1460 1079 0   0    9    8 38% 2 1595422 2356 38%
c i 23.91 1485 242 0   8  108   83 27% 21 1595422 2355 38%
c i 24.10 1485 222 0   8  120   94 27% 21 1595422 2354 38%
c i 24.27 1485 209 0   8  137  106 27% 19 1595422 2349 38%
c i 24.35 1485 208 0   8  139  107 27% 20 1595422 2348 38%
c i 24.35 1485 207 0   8  143  108 27% 19 1595422 2346 38%
c i 24.39 1485 204 0   8  148  112 27% 19 1595422 2345 38%
c i 24.45 1485 200 0   8  156  119 27% 21 1595422 2344 38%
c i 24.91 1488 187 0  13  182  143 27% 22 1595422 2343 38%
c i 25.53 1491 184 0  21  206  165 27% 27 1595422 2342 38%
c i 25.60 1491 183 0  22  207  165 27% 27 1595422 2341 38%
c i 25.73 1491 179 0  25  222  175 27% 28 1595422 2340 38%
c i 25.80 1492 176 0  27  228  180 27% 28 1595422 2339 38%
c i 25.94 1493 174 0  28  233  183 27% 28 1595422 2337 38%
c i 26.19 1493 171 0  31  242  191 27% 28 1595422 2336 38%
c i 26.20 1493 169 0  31  244  192 27% 28 1595422 2335 38%
c i 26.29 1493 164 0  33  255  198 27% 27 1595422 2334 38%
c i 26.32 1493 163 0  33  259  201 27% 27 1595422 2333 38%
c 
c  seconds     reductions  redundant    irredundant
c          MB      restarts       trail        variables
c             level   conflicts       glue          remaining
c 
c i 26.38 1494 163 0  33  261  202 27% 27 1595422 2316 38%
c i 26.50 1494 165 0  33  283  218 27% 26 1595422 2314 38%
c i 26.52 1494 165 0  33  288  222 27% 27 1595422 2313 38%
c i 26.53 1494 164 0  34  292  225 27% 27 1595422 2305 37%
c i 26.58 1494 162 0  36  298  230 27% 27 1595422 2304 37%
c - 30.66 1485 161 1  37  300  229 27% 28 532075 2304 37%
c i 30.85 1485 160 1  37  302  230 27% 28 532075 2303 37%
c i 30.88 1418 159 1  38  304  231 27% 28 532075 2302 37%
c i 30.88 1418 159 1  38  305  231 27% 28 532075 2301 37%
c i 31.01 1388 157 1  40  313  237 27% 28 532075 2300 37%
c i 31.22 1388 157 1  43  328  245 27% 29 532075 2298 37%
c i 31.69 1388 156 1  47  350  259 27% 28 532075 2296 37%
c i 32.36 1388 111 1  52  558  414 28% 26 532075 2285 37%
c i 32.45 1388 105 1  52  605  451 28% 26 532075 2284 37%
c i 32.48 1388 105 1  52  606  451 28% 26 532075 2279 37%
c i 33.01 1389 98 1  64  692  525 28% 27 532075 2274 37%
c i 33.82 1390 98 1  74  736  563 28% 28 532075 2273 37%
c i 33.84 1390 98 1  75  737  563 28% 28 532075 2272 37%
c i 33.94 1390 97 1  77  748  573 28% 28 532075 2271 37%
c i 34.09 1390 97 1  81  758  580 28% 28 532075 2270 37%
c 
c  seconds    reductions  redundant   irredundant
c          MB     restarts       trail       variables
c            level   conflicts       glue         remaining
c 
c i 34.39 1390 96 1  87  784  605 28% 30 532075 2269 37%
c i 34.40 1390 96 1  87  787  607 28% 30 532075 2268 37%
c i 34.43 1390 96 1  88  792  609 28% 30 532075 2266 37%
c i 34.43 1390 96 1  89  797  613 28% 30 532075 2265 37%
c i 34.49 1390 95 1  92  810  624 28% 30 532075 2264 37%
c i 34.50 1390 95 1  93  815  628 28% 30 532075 2263 37%
c i 34.88 1391 93 1 105  860  668 28% 31 532075 2262 37%
c i 35.66 1392 93 1 113  894  699 28% 31 532075 2260 37%
c i 35.86 1392 93 1 114  902  706 28% 31 532075 2259 37%
c i 36.60 1392 89 1 119  983  782 28% 30 532075 2258 37%
c i 36.68 1392 89 1 120  994  791 28% 31 532075 2257 37%
c } 36.85 1392 89 1 122 1000  795 28% 31 532075 2257 37%
c [ 36.85 1392  0 1 122 1000  795  0% 0 532075 2257 37%
c O 36.88 1392 20 1 122 1003  798 27% 15 532075 2257 37%
c i 37.10 1392 18 1 122 1028  820 32% 12 532075 2256 37%
c i 37.13 1392 28 1 122 1049  839 31% 20 532075 2255 37%
c i 37.22 1392 40 1 122 1111  895 32% 30 532075 2254 37%
c i 37.22 1393 40 1 122 1112  895 32% 30 532075 2253 37%
c - 38.41 1598 47 2 122 1336  975 32% 37 531615 2253 37%
c i 38.72 1598 48 2 122 1504 1109 32% 38 531615 2252 37%
c 
c  seconds    reductions  redundant   irredundant
c          MB     restarts       trail       variables
c            level   conflicts       glue         remaining
c 
c i 38.87 1598 46 2 122 1661 1227 32% 36 531615 2251 37%
c i 38.90 1598 45 2 122 1707 1268 32% 34 531615 2250 37%
c i 38.91 1598 44 2 122 1731 1283 32% 34 531615 2249 37%
c i 38.98 1598 41 2 122 1858 1358 32% 31 531615 2248 36%
c i 38.98 1598 41 2 122 1859 1358 32% 31 531615 2247 36%
c i 39.06 1598 37 2 122 2029 1482 32% 29 531615 2246 36%
c i 39.28 1598 31 2 123 2458 1752 32% 24 531615 2245 36%
c i 39.36 1598 31 2 123 2479 1769 32% 24 531615 2244 36%
c i 39.72 1598 27 2 123 2852 2055 32% 22 531615 2243 36%
c - 40.38 1595 27 3 123 2890 1568 32% 22 531585 2243 36%
c i 40.85 1595 27 3 123 2904 1577 48% 22 531585 2242 36%
c i 40.85 1595 27 3 123 2905 1577 47% 22 531585 2241 36%
c i 40.85 1595 27 3 123 2906 1577 47% 22 531585 2240 36%
c i 40.85 1595 27 3 123 2907 1577 46% 22 531585 2239 36%
c ] 40.98 1595 26 3 123 3000 1645 55% 21 531585 2239 36%
c { 40.98 1595 89 3 123 3000 1645 77% 31 531585 2239 36%
c F 41.02 1595 88 3 125 3005 1649 77% 31 531585 2239 36%
c i 41.02 1595 88 3 125 3005 1649 77% 31 531585 2238 36%
c i 41.45 1595 82 3 125 3116 1734 74% 29 531585 2237 36%
c i 41.48 1595 81 3 125 3123 1740 73% 29 531585 2218 36%
c 
c  seconds    reductions  redundant   irredundant
c          MB     restarts       trail       variables
c            level   conflicts       glue         remaining
c 
c i 41.71 1595 78 3 125 3198 1793 71% 28 531585 2217 36%
c i 41.71 1595 78 3 125 3201 1794 71% 28 531585 2216 36%
c i 41.94 1595 72 3 125 3358 1914 68% 26 531585 2215 36%
c i 42.47 1595 67 3 132 3602 2104 64% 26 531585 2214 36%
c i 42.54 1595 63 3 132 3743 2203 63% 25 531585 2213 36%
c - 43.54 1393 42 4 132 4960 1961 57% 19 300641 2213 36%
c 2 44.12 1393 42 4 132 5000 2814 57% 19 300609 2204 36%
c p 48.72 1394 42 4 132 5000 4958 57% 19 300609 2183 35%
c d 49.07 1393 42 4 132 5000 4833 57% 19 300546 2181 35%
c # 50.83 1393 38 4 178 6007 5623 55% 19 300546 2181 35%
c } 54.52 1393 37 4 256 7002 6404 53% 19 300546 2181 35%
c [ 54.52 1393 26 4 256 7002 6404 55% 21 300546 2181 35%
c - 54.84 1394 26 5 257 7180 2868 52% 21 300546 2181 35%
c - 55.84 1394 21 6 258 9841 3369 50% 17 300546 2181 35%
c I 56.02 1394 21 6 258 10008 3464 50% 17 300546 2181 35%
c - 58.40 1394 32 7 260 12945 3857 48% 25 300546 2181 35%
c p 61.41 1394 35 7 261 15001 8641 48% 27 300546 2181 35%
c ] 61.56 1394 35 7 261 15003 8643 48% 27 300546 2181 35%
c { 61.56 1394 37 7 261 15003 8643 53% 19 300546 2181 35%
c B 61.62 1394 37 7 262 15009 8649 53% 19 300546 2181 35%
c 
c  seconds    reductions   redundant   irredundant
c          MB     restarts        trail       variables
c            level    conflicts       glue         remaining
c 
c - 64.77 1394 35 8 374 16491 4740 51% 19 300546 2181 35%
c s 66.50 1394 31 8 436 18806 6179 50% 18 298790 2181 35%
c v 71.50 1394 31 8 436 18806 6179 50% 18 298776 2181 35%
c t 71.62 1394 31 8 436 18806 6172 50% 18 298768 2181 35%
c e 72.57 1395 31 8 436 18806 5902 50% 18 296403 875 14%
c s 72.69 1395 31 8 436 18806 5902 50% 18 296217 875 14%
c - 74.78 1395 29 9 446 20481 4644 69% 17 296217 875 14%
c W 75.15 1395 28 9 446 21012 4955 69% 17 296217 875 14%
c - 78.39 1395 26 10 540 24899 5019 68% 17 296217 875 14%
c F 80.81 1395 24 10 596 28013 7088 68% 16 296217 875 14%
c - 86.06 1395 25 11 771 29759 5905 68% 16 296217 875 14%
c p 88.32 1395 25 11 772 30003 7958 68% 16 296217 875 14%
c } 92.64 1395 25 11 902 31003 8746 68% 17 296217 875 14%
c [ 92.64 1395 35 11 902 31003 8746 123% 27 296217 875 14%
c - 94.27 1395 32 12 904 35058 7491 106% 25 296217 875 14%
c B 94.76 1395 31 12 905 36014 8119 103% 25 296217 875 14%
c - 97.16 1395 32 13 908 40798 7663 94% 26 296217 875 14%
c W 100.21 1395 31 13 909 45019 10525 90% 26 296217 875 14%
c - 101.27 1395 30 14 910 46979 7943 88% 25 296217 875 14%
c ] 101.64 1395 31 14 910 48083 8694 87% 25 296217 875 14%
c 
c  seconds     reductions    redundant   irredundant
c           MB      restarts        trail       variables
c             level     conflicts       glue        remaining
c 
c 1 101.64 1395 31 14 910 48083 8694 87% 25 296217 875 14%
c 
c --- [ writing output ] -----------------------------------------------------
c 
c writing simplified CNF to DIMACS file 'simp/33.cubes1359.adj.simp1'
c * 101.64 1395 31 14 910 48083 8694 87% 25 296217 875 14%
c opening file to write 'simp/33.cubes1359.adj.simp1'
c writing 'p cnf 6160 296217' header
c closing file 'simp/33.cubes1359.adj.simp1'
c after writing 118507680 bytes 113.0 MB
c wrote 296217 clauses in 0.85 seconds process time
c 
c --- [ writing extension ] --------------------------------------------------
c 
c writing extension stack to 'simp/33.cubes1359.adj.ext1'
c opening file to write 'simp/33.cubes1359.adj.ext1'
c closing file 'simp/33.cubes1359.adj.ext1'
c after writing 84331 bytes 0.1 MB
c wrote 3793 witnesses in 0.00 seconds process time
c 
c --- [ result ] -------------------------------------------------------------
c 
s SATISFIABLE
c 
c --- [ run-time profiling ] -------------------------------------------------
c 
c process time taken by individual solving procedures
c (percentage relative to process time for solving)
c 
c        66.22   80.55% search
c        46.26   56.28% unstable
c        19.43   23.64% parse
c        17.19   20.91% stable
c        15.99   19.45% simplify
c         7.85    9.55% probe
c         5.09    6.19% vivify
c         1.79    2.17% elim
c         1.52    1.84% lucky
c         1.25    1.51% walk
c         0.25    0.30% subsume
c         0.13    0.16% ternary
c   =================================
c        82.21   80.21% solve
c 
c last line shows process time for solving
c (percentage relative to total process time)
c 
c --- [ statistics ] ---------------------------------------------------------
c 
c chronological:              8566        17.82 %  of conflicts
c conflicts:                 48083       584.87    per second
c decisions:                104757      1274.25    per second
c eliminated:                 1306        21.20 %  of all variables
c fixed:                       824        13.38 %  of all variables
c learned:                   47029        97.81 %  per conflict
c learned_lits:            8500867       100.00 %  learned literals
c minimized:                     0         0.00 %  learned literals
c shrunken:                4717146        55.49 %  learned literals
c minishrunken:             935733        11.01 %  learned literals
c propagations:            4771840         0.06 M  per second
c reduced:                   24783        51.54 %  per conflict
c rephased:                      9      5342.56    interval
c restarts:                    910        52.84    interval
c stabilizing:                   3        56.32 %  of conflicts
c substituted:                  11         0.18 %  of all variables
c subsumed:                  15213         0.44 %  of all clauses
c strengthened:               4786         0.14 %  of all clauses
c ternary:                    2261         0.58 %  of resolved
c vivified:                     23         0.00 %  of all clauses
c walked:                        2     24041.50    interval
c weakened:                   2969         3.00    average size
c 
c seconds are measured in process time for solving
c 
c --- [ resources ] ----------------------------------------------------------
c 
c total process time since initialization:       102.50    seconds
c total real time since initialization:          102.92    seconds
c maximum resident set size of process:         1800.00    MB
c 
c --- [ shutting down ] ------------------------------------------------------
c 
c exit 10
WARNING! DIMACS header mismatch: wrong number of variables.
============================[ Problem Statistics ]=============================
|                                                                             |
|  Number of variables:          3492                                         |
|  Number of clauses:          296217                                         |
|  Parse time:                   1.56 s                                       |
|  Simplification time:          0.03 s                                       |
|                                                                             |
============================[ Search Statistics ]====================================================
| Conflicts |          ORIGINAL         |          LEARNT          | Num Sols |      SUBGRAPHS      |
|           |    Vars  Clauses Literals |    Limit  Clauses Lit/Cl |          | Canonical Noncanon. |
=====================================================================================================
|       101 |    3398   296218 26009694 |     2000      101    109 |        0 |        15         1 |
|       365 |    3398   296332 26012160 |     2000      365     56 |        0 |        63       115 |
|       641 |    3398   296383 26013091 |     2000      641     61 |        0 |        85       166 |
|       986 |    3398   296391 26013337 |     2000      986     74 |        0 |        87       174 |
|      1514 |    3398   296413 26013814 |     2000     1514     78 |        0 |        94       196 |
|      2375 |    3398   296515 26015694 |     3600     1375     54 |        0 |       142       298 |
|      3971 |    3398   296972 26020950 |     3600     2971     62 |        0 |       241       755 |
|      5995 |    3398   297288 26027705 |     5002     3197     49 |        0 |       351      1071 |
|      9423 |    3398   298154 26045955 |     6301     4124     42 |        0 |       539      1937 |
|     13498 |    3398   298385 26051759 |     7550     5048     43 |        0 |       653      2168 |
|     19529 |    3398   298650 26057877 |     8781     7310     51 |        0 |       787      2433 |
|     28430 |    3398   298902 26063176 |    11203     6833     36 |        0 |       976      2685 |
|     45467 |    3398   302965 26134382 |    13609    12076     57 |        0 |      1985      6748 |
|     68134 |    3398   306171 26193692 |    17215    12549     43 |        0 |      3239      9954 |
|    100914 |    3398   309759 26257721 |    20807    17721     52 |        0 |      4492     13542 |
|    145281 |    3398   310337 26268718 |    25610    16891     44 |        0 |      4699     14120 |
|    223712 |    3398   323084 26482171 |    31612    25324     56 |        0 |      8190     26867 |
|    327826 |    3398   328672 26582898 |    38815    25641     47 |        0 |     11673     32455 |
|    487871 |    3398   340928 26857437 |    47208    37279     55 |        0 |     15918     44711 |
|    803612 |    3398   434986 28885393 |    61614    30226     22 |        0 |     43988    138769 |
|   1397367 |    3390   644739 34206405 |    75202    53569     57 |        0 |     71422    399999 |
|   1990138 |    3351   655328 33750248 |    96411    65128     28 |        0 |     96504    493982 |
=====================================================================================================
Number of solutions   : 0
Canonical subgraphs   : 98304          (22 /sec)
          order  3    : 1              (200000 /sec)
          order  4    : 1              (500000 /sec)
          order  5    : 1              (200000 /sec)
          order  6    : 1              (55556 /sec)
          order  7    : 1              (7874 /sec)
          order  8    : 2              (1363 /sec)
          order  9    : 7              (354 /sec)
          order 10    : 32             (108 /sec)
          order 11    : 152            (37 /sec)
          order 12    : 1176           (25 /sec)
          order 13    : 5371           (18 /sec)
          order 14    : 18323          (23 /sec)
          order 15    : 30178          (24 /sec)
          order 16    : 22752          (23 /sec)
          order 17    : 12770          (19 /sec)
          order 18    : 6126           (18 /sec)
          order 19    : 1185           (17 /sec)
          order 20    : 186            (17 /sec)
          order 21    : 39             (28 /sec)
          order 22    : 0              (-nan /sec)
Noncanonical subgraphs: 523970         (194 /sec)
          order  3    : 0              (-nan /sec)
          order  4    : 0              (-nan /sec)
          order  5    : 0              (-nan /sec)
          order  6    : 0              (-nan /sec)
          order  7    : 0              (-nan /sec)
          order  8    : 0              (-nan /sec)
          order  9    : 0              (-nan /sec)
          order 10    : 0              (-nan /sec)
          order 11    : 0              (-nan /sec)
          order 12    : 0              (-nan /sec)
          order 13    : 18658          (4086 /sec)
          order 14    : 55414          (997 /sec)
          order 15    : 420594         (172 /sec)
          order 16    : 23064          (197 /sec)
          order 17    : 6181           (86 /sec)
          order 18    : 16             (111 /sec)
          order 19    : 0              (-nan /sec)
          order 20    : 1              (227 /sec)
          order 21    : 0              (-nan /sec)
Canonicity checking   : 4526.73 s
Noncanonicity checking: 2694.88 s
Total canonicity time : 7221.61 s
database reductions   : 80
restarts              : 4091
conflicts             : 2069430        (250 /sec)
decisions             : 2980781        (0.00 % random) (360 /sec)
propagations          : 106057701      (12799 /sec)
conflict literals     : 162463383      (56.17 % deleted)
actual reward         : 0.244107
Memory used           : 494.00 MB
CPU time              : 8286.55 s

UNSATISFIABLE
